results/res_prop_muc/res_Cimatti_mathsat_cores/QF_LRA/fs_frame_gap.induction.smt.smt2.res
unsat
( c1001
  c103
  c104
  c1069
  c1070
  c1072
  c110
  c1106
  c111
  c1115
  c1125
  c1126
  c1128
  c113
  c1134
  c1139
  c114
  c1142
  c1146
  c115
  c116
  c117
  c118
  c121
  c1212
  c1282
  c130
  c131
  c1311
  c132
  c1327
  c133
  c1333
  c134
  c135
  c1357
  c1361
  c1385
  c1386
  c1390
  c1408
  c1409
  c1413
  c1435
  c1445
  c1450
  c147
  c1476
  c1477
  c148
  c1480
  c1483
  c1499
  c150
  c1567
  c1602
  c1613
  c1632
  c1640
  c1644
  c1651
  c1666
  c1667
  c1668
  c175
  c216
  c286
  c315
  c324
  c362
  c363
  c366
  c477
  c48
  c49
  c503
  c534
  c571
  c606
  c617
  c621
  c627
  c628
  c630
  c636
  c641
  c644
  c648
  c714
  c784
  c813
  c841
  c845
  c859
  c863
  c897
  c901
  c905
  c909
  c911
  c913
  c914
  c915
  c916
  c917
  c947
  c96
  c979
  c98
  c980
  c981
  c984
  c99 )
